p cnf 22 71
-3 -4 -19 0
7 12 21 0
4 10 19 0
-12 -15 20 0
-3 -15 -17 0
3 11 -18 0
14 -20 22 0
-15 -19 -20 0
9 -18 -20 0
-8 -13 16 0
-6 12 19 0
1 13 -14 0
6 7 -21 0
-6 -12 -19 0
-6 15 -16 0
-1 15 -17 0
3 -15 16 0
-7 -12 20 0
-4 -11 18 0
8 -15 -19 0
5 -8 -16 0
-7 16 21 0
-2 -10 16 0
4 12 21 0
1 13 -21 0
4 -9 -10 0
-12 -15 -16 0
3 -4 -15 0
-12 -17 -22 0
-1 2 19 0
3 -5 -22 0
-4 -6 -18 0
-4 -10 22 0
8 -20 -22 0
8 -16 18 0
-10 15 16 0
11 -18 -19 0
-14 -17 -19 0
8 11 13 0
13 16 17 0
-5 -12 18 0
17 -18 -22 0
11 -15 19 0
2 -11 15 0
3 -5 15 0
3 -12 -17 0
-6 -13 -14 0
6 -10 21 0
4 10 15 0
-13 -16 -17 0
2 -16 -22 0
-7 -11 17 0
10 20 21 0
11 -13 22 0
2 -6 10 0
9 17 22 0
3 10 20 0
-4 -17 -22 0
2 -4 5 0
-3 -10 -19 0
5 -7 18 0
-5 7 11 0
-7 -10 14 0
8 -10 21 0
-3 8 11 0
-7 -14 19 0
5 12 17 0
1 3 -4 0
-10 -19 -20 0
13 17 18 0
7 12 -20 0
